peakDumbCharging = 18500; 
Machine = anon_enum(16); 
machineSpeed = [3700,3700,3700,3700,3700,3700,3700,3700,3700,3700,3700,3700,3700,3700,3700,3700]; 
machineLoad = [3700,3700,3700,3700,3700,3700,3700,3700,3700,3700,3700,3700,3700,3700,3700,3700]; 
Car = anon_enum(7); 
demandCar = [9800,760,880,1040,1240,520,33680]; 
arrivalCar = [54,41,41,40,40,39,38]; 
departureCar = [59,42,42,42,41,41,59]; 
